NAME          
ROWS
 N  OBJ
 L  c1
COLUMNS
    MARKER    'MARKER'                 'INTORG'
    x[1]      c1        57
    x[1]      OBJ       -84
    x[2]      c1        326
    x[2]      OBJ       -314
    x[3]      c1        371
    x[3]      OBJ       -460
    x[4]      c1        716
    x[4]      OBJ       -649
    x[5]      c1        115
    x[5]      OBJ       -36
RHS
    rhs       c1        792
RANGES
BOUNDS
 BV bounds    x[1]
 BV bounds    x[2]
 BV bounds    x[3]
 BV bounds    x[4]
 BV bounds    x[5]
ENDATA
